0000000000000000
0000000000000000
0000000000000000
0011110011000000
0000000000110000
0000000000010000
0000000000001000
0000000000001000
0000000000001000
0000001000001000
0000001000001000
0000001000000000
0000001000000000
0000001000000000
0000010000000000
0000000000000000
